25° run output:
{
    "Function": "kroB500.tsp",
    "Problem dimension": [
        456,
        382,
        94,
        0,
        144,
        350,
        58,
        28,
        401,
        5,
        291,
        306,
        76,
        393,
        124,
        120,
        333,
        390,
        139,
        304,
        276,
        53,
        440,
        230,
        441,
        129,
        150,
        118,
        232,
        4,
        408,
        251,
        323,
        485,
        263,
        227,
        415,
        342,
        462,
        474,
        261,
        242,
        140,
        56,
        241,
        405,
        71,
        210,
        347,
        437,
        65,
        266,
        450,
        212,
        264,
        432,
        159,
        284,
        42,
        290,
        429,
        52,
        110,
        2,
        329,
        169,
        98,
        130,
        422,
        433,
        282,
        116,
        64,
        137,
        75,
        213,
        430,
        125,
        238,
        176,
        178,
        83,
        115,
        185,
        138,
        470,
        49,
        403,
        240,
        387,
        281,
        66,
        196,
        324,
        224,
        255,
        136,
        479,
        253,
        79,
        494,
        427,
        231,
        85,
        193,
        61,
        80,
        275,
        398,
        476,
        335,
        330,
        478,
        203,
        392,
        143,
        444,
        412,
        272,
        367,
        86,
        280,
        454,
        438,
        355,
        336,
        233,
        400,
        383,
        103,
        249,
        344,
        361,
        170,
        197,
        375,
        112,
        278,
        165,
        19,
        328,
        457,
        119,
        380,
        396,
        200,
        72,
        97,
        248,
        101,
        219,
        221,
        90,
        391,
        151,
        127,
        13,
        105,
        498,
        455,
        48,
        452,
        39,
        475,
        96,
        352,
        268,
        312,
        174,
        394,
        67,
        38,
        369,
        87,
        46,
        188,
        133,
        483,
        12,
        17,
        353,
        153,
        497,
        316,
        487,
        406,
        495,
        225,
        102,
        451,
        184,
        410,
        300,
        364,
        447,
        207,
        296,
        420,
        425,
        111,
        214,
        307,
        468,
        334,
        407,
        386,
        493,
        443,
        285,
        477,
        267,
        302,
        23,
        297,
        489,
        161,
        371,
        399,
        286,
        152,
        404,
        471,
        321,
        377,
        339,
        217,
        27,
        360,
        145,
        445,
        484,
        374,
        499,
        160,
        22,
        373,
        370,
        1,
        222,
        18,
        488,
        121,
        162,
        295,
        198,
        395,
        492,
        289,
        205,
        155,
        215,
        50,
        47,
        331,
        317,
        62,
        236,
        81,
        262,
        294,
        51,
        106,
        8,
        135,
        299,
        37,
        271,
        376,
        122,
        490,
        104,
        44,
        320,
        358,
        388,
        428,
        351,
        24,
        95,
        340,
        131,
        389,
        464,
        149,
        239,
        313,
        442,
        424,
        308,
        99,
        204,
        460,
        436,
        365,
        15,
        397,
        279,
        250,
        70,
        378,
        305,
        472,
        173,
        69,
        128,
        346,
        226,
        82,
        194,
        292,
        36,
        182,
        419,
        166,
        220,
        448,
        459,
        93,
        411,
        177,
        486,
        100,
        187,
        327,
        337,
        218,
        354,
        88,
        228,
        245,
        164,
        216,
        57,
        41,
        113,
        381,
        229,
        25,
        269,
        325,
        237,
        461,
        463,
        359,
        108,
        338,
        172,
        298,
        318,
        208,
        142,
        258,
        254,
        465,
        287,
        322,
        117,
        366,
        32,
        235,
        183,
        348,
        59,
        446,
        84,
        357,
        496,
        349,
        332,
        439,
        109,
        181,
        368,
        126,
        54,
        40,
        35,
        31,
        283,
        26,
        414,
        310,
        345,
        402,
        92,
        362,
        89,
        20,
        244,
        434,
        157,
        260,
        356,
        78,
        55,
        223,
        195,
        417,
        60,
        154,
        385,
        274,
        259,
        246,
        418,
        29,
        33,
        73,
        171,
        423,
        6,
        435,
        288,
        77,
        146,
        163,
        234,
        14,
        467,
        3,
        482,
        7,
        303,
        314,
        156,
        247,
        426,
        319,
        68,
        180,
        192,
        63,
        30,
        301,
        372,
        458,
        481,
        11,
        309,
        453,
        179,
        473,
        148,
        211,
        209,
        315,
        469,
        123,
        74,
        277,
        413,
        199,
        431,
        91,
        384,
        186,
        206,
        191,
        466,
        409,
        107,
        256,
        449,
        416,
        141,
        45,
        273,
        293,
        10,
        34,
        132,
        167,
        134,
        43,
        202,
        480,
        341,
        147,
        252,
        175,
        265,
        311,
        189,
        363,
        491,
        9,
        201,
        114,
        21,
        343,
        16,
        158,
        190,
        270,
        421,
        168,
        243,
        257,
        326,
        379
    ],
    "Global Optimum": 0,
    "Algorithm": "Genetic algorithm",
    "Parameters": {
        "population": 30,
        "offspring": 30,
        "mutation probability": 0.002,
        "crossover probability": 0.9
    },
    "Fitness": 497855,
    "Solution": [
        456,
        382,
        94,
        0,
        144,
        350,
        58,
        28,
        401,
        5,
        291,
        306,
        76,
        393,
        124,
        120,
        333,
        390,
        139,
        304,
        276,
        53,
        440,
        230,
        441,
        129,
        150,
        118,
        232,
        4,
        408,
        251,
        323,
        485,
        263,
        227,
        415,
        342,
        462,
        474,
        261,
        242,
        140,
        56,
        241,
        405,
        71,
        210,
        347,
        437,
        65,
        266,
        450,
        212,
        264,
        432,
        159,
        284,
        42,
        290,
        429,
        52,
        110,
        2,
        329,
        169,
        98,
        130,
        422,
        433,
        282,
        116,
        64,
        137,
        75,
        213,
        430,
        125,
        238,
        176,
        178,
        83,
        115,
        185,
        138,
        470,
        49,
        403,
        240,
        387,
        281,
        66,
        196,
        324,
        224,
        255,
        136,
        479,
        253,
        79,
        494,
        427,
        231,
        85,
        193,
        61,
        80,
        275,
        398,
        476,
        335,
        330,
        478,
        203,
        392,
        143,
        444,
        412,
        272,
        367,
        86,
        280,
        454,
        438,
        355,
        336,
        233,
        400,
        383,
        103,
        249,
        344,
        361,
        170,
        197,
        375,
        112,
        278,
        165,
        19,
        328,
        457,
        119,
        380,
        396,
        200,
        72,
        97,
        248,
        101,
        219,
        221,
        90,
        391,
        151,
        127,
        13,
        105,
        498,
        455,
        48,
        452,
        39,
        475,
        96,
        352,
        268,
        312,
        174,
        394,
        67,
        38,
        369,
        87,
        46,
        188,
        133,
        483,
        12,
        17,
        353,
        153,
        497,
        316,
        487,
        406,
        495,
        225,
        102,
        451,
        184,
        410,
        300,
        364,
        447,
        207,
        296,
        420,
        425,
        111,
        214,
        307,
        468,
        334,
        407,
        386,
        493,
        443,
        285,
        477,
        267,
        302,
        23,
        297,
        489,
        161,
        371,
        399,
        286,
        152,
        404,
        471,
        321,
        377,
        339,
        217,
        27,
        360,
        145,
        445,
        484,
        374,
        499,
        160,
        22,
        373,
        370,
        1,
        222,
        18,
        488,
        121,
        162,
        295,
        198,
        395,
        492,
        289,
        205,
        155,
        215,
        50,
        47,
        331,
        317,
        62,
        236,
        81,
        262,
        294,
        51,
        106,
        8,
        135,
        299,
        37,
        271,
        376,
        122,
        490,
        104,
        44,
        320,
        358,
        388,
        428,
        351,
        24,
        95,
        340,
        131,
        389,
        464,
        149,
        239,
        313,
        442,
        424,
        308,
        99,
        204,
        460,
        436,
        365,
        15,
        397,
        279,
        250,
        70,
        378,
        305,
        472,
        173,
        69,
        128,
        346,
        226,
        82,
        194,
        292,
        36,
        182,
        419,
        166,
        220,
        448,
        459,
        93,
        411,
        177,
        486,
        100,
        187,
        327,
        337,
        218,
        354,
        88,
        228,
        245,
        164,
        216,
        57,
        41,
        113,
        381,
        229,
        25,
        269,
        325,
        237,
        461,
        463,
        359,
        108,
        338,
        172,
        298,
        318,
        208,
        142,
        258,
        254,
        465,
        287,
        322,
        117,
        366,
        32,
        235,
        183,
        348,
        59,
        446,
        84,
        357,
        496,
        349,
        332,
        439,
        109,
        181,
        368,
        126,
        54,
        40,
        35,
        31,
        283,
        26,
        414,
        310,
        345,
        402,
        92,
        362,
        89,
        20,
        244,
        434,
        157,
        260,
        356,
        78,
        55,
        223,
        195,
        417,
        60,
        154,
        385,
        274,
        259,
        246,
        418,
        29,
        33,
        73,
        171,
        423,
        6,
        435,
        288,
        77,
        146,
        163,
        234,
        14,
        467,
        3,
        482,
        7,
        303,
        314,
        156,
        247,
        426,
        319,
        68,
        180,
        192,
        63,
        30,
        301,
        372,
        458,
        481,
        11,
        309,
        453,
        179,
        473,
        148,
        211,
        209,
        315,
        469,
        123,
        74,
        277,
        413,
        199,
        431,
        91,
        384,
        186,
        206,
        191,
        466,
        409,
        107,
        256,
        449,
        416,
        141,
        45,
        273,
        293,
        10,
        34,
        132,
        167,
        134,
        43,
        202,
        480,
        341,
        147,
        252,
        175,
        265,
        311,
        189,
        363,
        491,
        9,
        201,
        114,
        21,
        343,
        16,
        158,
        190,
        270,
        421,
        168,
        243,
        257,
        326,
        379
    ],
    "Nb of functions evaluations": 400020,
    "Computational time in seconds": 1510.5962471961975,
    "Stopping criterion in evaluations": 400000
}